
  12    4
  10   10   10   10

   0   0   0   0   0   4 2 3 5 6 
   3  10  10  10  10   2 7 4 
   6  10  10  10  10   1 4 
   7  10  10  10  10   4 11 10 9 8 
   3  10  10  10  10   4 11 10 9 8 
   5  10  10  10  10   2 10 9 
   2  10  10  10  10   1 8 
   4  10  10  10  10   1 12
   4  10  10  10  10   1 12
  10  10  10  10  10   1 12
   9  10  10  10  10   1 12
   0   0   0   0   0   0 
